100
547 125 281 431 17 499 953 429 835 961 21 14 437 960 455 798 672 46 466 644 160 133 668 301 691 278 77 375 788 349 546 774 278 867 42 451 242 171 900 167 781 472 946 886 17 952 559 727 106 719 722 965 596 40 655 666 130 809 37 588 623 947 168 219 677 484 919 160 660 214 932 368 416 511 930 841 625 319 628 881 466 149 790 989 298 53 324 193 648 504 847 197 640 585 129 496 212 23 392 377 
546 123 279 429 15 498 951 429 834 960 21 12 435 960 453 798 672 45 465 642 159 132 666 300 690 276 75 375 786 348 546 774 276 867 42 450 240 171 900 165 780 471 945 885 15 951 558 726 105 717 720 963 594 39 654 666 129 807 36 588 621 945 168 219 675 483 918 159 660 213 930 366 414 510 930 840 624 318 627 879 465 147 789 987 297 51 324 192 648 504 846 195 639 585 129 495 210 21 390 375 
24285
